p cnf 441 1
441 0
w 1 0.772987
w 2 1 0
w 2 -1 1
w 3 2 0.415353
w 3 -2 0.868981
w 4 3 1
w 4 -3 0
w 5 4 1
w 5 -4 0
w 6 5 1
w 6 -5 0
w 7 6 0.924124
w 7 -6 0.53325
w 8 7 0.12811
w 8 -7 0.422393
w 9 8 1
w 9 -8 0
w 10 9 0
w 10 -9 1
w 11 10 1
w 11 -10 0
w 12 11 0
w 12 -11 1
w 13 12 0.275385
w 13 -12 0.796925
w 14 13 0.574116
w 14 -13 0.569912
w 15 14 0
w 15 -14 1
w 16 15 0
w 16 -15 1
w 17 16 1
w 17 -16 0
w 18 17 0
w 18 -17 1
w 19 18 0.389001
w 19 -18 0.283916
w 20 19 0.313125
w 20 -19 0.817167
w 21 20 0.441235
w 21 -20 0.239559
w 22 1 1
w 22 -1 0
w 23 22 2 0.886689
w 23 22 -2 0.285658
w 23 -22 2 0.509907
w 23 -22 -2 0.435276
w 24 23 3 0
w 24 23 -3 0
w 24 -23 3 1
w 24 -23 -3 0
w 25 24 4 1
w 25 24 -4 1
w 25 -24 4 1
w 25 -24 -4 0
w 26 25 5 1
w 26 25 -5 1
w 26 -25 5 0
w 26 -25 -5 1
w 27 26 6 0
w 27 26 -6 1
w 27 -26 6 0
w 27 -26 -6 0
w 28 27 7 0
w 28 27 -7 1
w 28 -27 7 0
w 28 -27 -7 1
w 29 28 8 1
w 29 28 -8 0
w 29 -28 8 1
w 29 -28 -8 1
w 30 29 9 1
w 30 29 -9 1
w 30 -29 9 1
w 30 -29 -9 0
w 31 30 10 0
w 31 30 -10 1
w 31 -30 10 0
w 31 -30 -10 0
w 32 31 11 0.94266
w 32 31 -11 0.252849
w 32 -31 11 0.0761104
w 32 -31 -11 0.993821
w 33 32 12 0
w 33 32 -12 1
w 33 -32 12 0
w 33 -32 -12 0
w 34 33 13 0
w 34 33 -13 1
w 34 -33 13 1
w 34 -33 -13 0
w 35 34 14 0.0480171
w 35 34 -14 0.0721589
w 35 -34 14 0.343116
w 35 -34 -14 0.732996
w 36 35 15 0
w 36 35 -15 1
w 36 -35 15 1
w 36 -35 -15 1
w 37 36 16 0
w 37 36 -16 1
w 37 -36 16 1
w 37 -36 -16 0
w 38 37 17 0
w 38 37 -17 0
w 38 -37 17 0
w 38 -37 -17 1
w 39 38 18 0
w 39 38 -18 1
w 39 -38 18 1
w 39 -38 -18 1
w 40 39 19 1
w 40 39 -19 1
w 40 -39 19 1
w 40 -39 -19 0
w 41 40 20 0
w 41 40 -20 1
w 41 -40 20 0
w 41 -40 -20 0
w 42 41 21 1
w 42 41 -21 0
w 42 -41 21 0
w 42 -41 -21 1
w 43 22 0
w 43 -22 1
w 44 43 23 1
w 44 43 -23 0
w 44 -43 23 0
w 44 -43 -23 1
w 45 44 24 0.55327
w 45 44 -24 0.216277
w 45 -44 24 0.768845
w 45 -44 -24 0.308238
w 46 45 25 1
w 46 45 -25 1
w 46 -45 25 0
w 46 -45 -25 0
w 47 46 26 1
w 47 46 -26 0
w 47 -46 26 1
w 47 -46 -26 1
w 48 47 27 0
w 48 47 -27 1
w 48 -47 27 0
w 48 -47 -27 1
w 49 48 28 0
w 49 48 -28 1
w 49 -48 28 0
w 49 -48 -28 1
w 50 49 29 0
w 50 49 -29 0
w 50 -49 29 1
w 50 -49 -29 0
w 51 50 30 1
w 51 50 -30 1
w 51 -50 30 0
w 51 -50 -30 1
w 52 51 31 0.643193
w 52 51 -31 0.13256
w 52 -51 31 0.309798
w 52 -51 -31 0.270164
w 53 52 32 1
w 53 52 -32 0
w 53 -52 32 1
w 53 -52 -32 1
w 54 53 33 1
w 54 53 -33 0
w 54 -53 33 1
w 54 -53 -33 0
w 55 54 34 0
w 55 54 -34 1
w 55 -54 34 1
w 55 -54 -34 1
w 56 55 35 1
w 56 55 -35 1
w 56 -55 35 0
w 56 -55 -35 1
w 57 56 36 0
w 57 56 -36 1
w 57 -56 36 0
w 57 -56 -36 1
w 58 57 37 0.844443
w 58 57 -37 0.987919
w 58 -57 37 0.11055
w 58 -57 -37 0.114607
w 59 58 38 0
w 59 58 -38 1
w 59 -58 38 0
w 59 -58 -38 1
w 60 59 39 0.104353
w 60 59 -39 0.502942
w 60 -59 39 0.800632
w 60 -59 -39 0.716837
w 61 60 40 0
w 61 60 -40 1
w 61 -60 40 0
w 61 -60 -40 0
w 62 61 41 1
w 62 61 -41 1
w 62 -61 41 1
w 62 -61 -41 0
w 63 62 42 0.84382
w 63 62 -42 0.290649
w 63 -62 42 0.0788828
w 63 -62 -42 0.699179
w 64 43 0
w 64 -43 1
w 65 64 44 0
w 65 64 -44 0
w 65 -64 44 1
w 65 -64 -44 1
w 66 65 45 1
w 66 65 -45 0
w 66 -65 45 0
w 66 -65 -45 1
w 67 66 46 1
w 67 66 -46 1
w 67 -66 46 0
w 67 -66 -46 1
w 68 67 47 1
w 68 67 -47 1
w 68 -67 47 0
w 68 -67 -47 1
w 69 68 48 0
w 69 68 -48 0
w 69 -68 48 0
w 69 -68 -48 1
w 70 69 49 0
w 70 69 -49 0
w 70 -69 49 1
w 70 -69 -49 0
w 71 70 50 0
w 71 70 -50 0
w 71 -70 50 0
w 71 -70 -50 1
w 72 71 51 0
w 72 71 -51 1
w 72 -71 51 1
w 72 -71 -51 1
w 73 72 52 0
w 73 72 -52 0
w 73 -72 52 0
w 73 -72 -52 1
w 74 73 53 1
w 74 73 -53 0
w 74 -73 53 0
w 74 -73 -53 0
w 75 74 54 0
w 75 74 -54 0
w 75 -74 54 0
w 75 -74 -54 1
w 76 75 55 0
w 76 75 -55 1
w 76 -75 55 0
w 76 -75 -55 0
w 77 76 56 0
w 77 76 -56 0
w 77 -76 56 1
w 77 -76 -56 1
w 78 77 57 0.275015
w 78 77 -57 0.107012
w 78 -77 57 0.735333
w 78 -77 -57 0.300204
w 79 78 58 0
w 79 78 -58 1
w 79 -78 58 1
w 79 -78 -58 0
w 80 79 59 0
w 80 79 -59 1
w 80 -79 59 0
w 80 -79 -59 0
w 81 80 60 1
w 81 80 -60 0
w 81 -80 60 0
w 81 -80 -60 1
w 82 81 61 0.495685
w 82 81 -61 0.965409
w 82 -81 61 0.541457
w 82 -81 -61 0.232906
w 83 82 62 0
w 83 82 -62 1
w 83 -82 62 1
w 83 -82 -62 0
w 84 83 63 0.457581
w 84 83 -63 0.0346446
w 84 -83 63 0.903807
w 84 -83 -63 0.192914
w 85 64 1
w 85 -64 0
w 86 85 65 0.339094
w 86 85 -65 0.511153
w 86 -85 65 0.208261
w 86 -85 -65 0.543732
w 87 86 66 0
w 87 86 -66 1
w 87 -86 66 1
w 87 -86 -66 0
w 88 87 67 0
w 88 87 -67 0
w 88 -87 67 1
w 88 -87 -67 0
w 89 88 68 0.173409
w 89 88 -68 0.519081
w 89 -88 68 0.0480573
w 89 -88 -68 0.315437
w 90 89 69 1
w 90 89 -69 1
w 90 -89 69 0
w 90 -89 -69 1
w 91 90 70 1
w 91 90 -70 0
w 91 -90 70 0
w 91 -90 -70 0
w 92 91 71 1
w 92 91 -71 0
w 92 -91 71 0
w 92 -91 -71 1
w 93 92 72 1
w 93 92 -72 1
w 93 -92 72 1
w 93 -92 -72 0
w 94 93 73 0.428421
w 94 93 -73 0.80206
w 94 -93 73 0.101596
w 94 -93 -73 0.636421
w 95 94 74 0.916748
w 95 94 -74 0.809831
w 95 -94 74 0.298765
w 95 -94 -74 0.964805
w 96 95 75 0
w 96 95 -75 1
w 96 -95 75 1
w 96 -95 -75 0
w 97 96 76 1
w 97 96 -76 1
w 97 -96 76 1
w 97 -96 -76 0
w 98 97 77 0
w 98 97 -77 1
w 98 -97 77 1
w 98 -97 -77 0
w 99 98 78 0
w 99 98 -78 1
w 99 -98 78 0
w 99 -98 -78 1
w 100 99 79 1
w 100 99 -79 1
w 100 -99 79 0
w 100 -99 -79 1
w 101 100 80 1
w 101 100 -80 1
w 101 -100 80 0
w 101 -100 -80 1
w 102 101 81 0.0323173
w 102 101 -81 0.902787
w 102 -101 81 0.716856
w 102 -101 -81 0.989594
w 103 102 82 1
w 103 102 -82 0
w 103 -102 82 0
w 103 -102 -82 0
w 104 103 83 0.397462
w 104 103 -83 0.292318
w 104 -103 83 0.92877
w 104 -103 -83 0.181815
w 105 104 84 0.333538
w 105 104 -84 0.0449867
w 105 -104 84 0.721308
w 105 -104 -84 0.529805
w 106 85 1
w 106 -85 0
w 107 106 86 0
w 107 106 -86 1
w 107 -106 86 0
w 107 -106 -86 0
w 108 107 87 1
w 108 107 -87 0
w 108 -107 87 1
w 108 -107 -87 0
w 109 108 88 0
w 109 108 -88 1
w 109 -108 88 0
w 109 -108 -88 1
w 110 109 89 0
w 110 109 -89 0
w 110 -109 89 1
w 110 -109 -89 0
w 111 110 90 0
w 111 110 -90 1
w 111 -110 90 1
w 111 -110 -90 1
w 112 111 91 1
w 112 111 -91 0
w 112 -111 91 0
w 112 -111 -91 0
w 113 112 92 1
w 113 112 -92 0
w 113 -112 92 1
w 113 -112 -92 1
w 114 113 93 1
w 114 113 -93 1
w 114 -113 93 0
w 114 -113 -93 1
w 115 114 94 0.750451
w 115 114 -94 0.414471
w 115 -114 94 0.0498783
w 115 -114 -94 0.314793
w 116 115 95 1
w 116 115 -95 0
w 116 -115 95 1
w 116 -115 -95 0
w 117 116 96 0.938046
w 117 116 -96 0.0969878
w 117 -116 96 0.577632
w 117 -116 -96 0.275426
w 118 117 97 1
w 118 117 -97 1
w 118 -117 97 0
w 118 -117 -97 1
w 119 118 98 1
w 119 118 -98 0
w 119 -118 98 1
w 119 -118 -98 0
w 120 119 99 0.748687
w 120 119 -99 0.246006
w 120 -119 99 0.127474
w 120 -119 -99 0.92439
w 121 120 100 0
w 121 120 -100 0
w 121 -120 100 0
w 121 -120 -100 1
w 122 121 101 0.584338
w 122 121 -101 0.336579
w 122 -121 101 0.105228
w 122 -121 -101 0.36682
w 123 122 102 0.987456
w 123 122 -102 0.304866
w 123 -122 102 0.0222418
w 123 -122 -102 0.565088
w 124 123 103 1
w 124 123 -103 0
w 124 -123 103 1
w 124 -123 -103 1
w 125 124 104 1
w 125 124 -104 1
w 125 -124 104 0
w 125 -124 -104 0
w 126 125 105 0
w 126 125 -105 0
w 126 -125 105 1
w 126 -125 -105 1
w 127 106 0
w 127 -106 1
w 128 127 107 0
w 128 127 -107 1
w 128 -127 107 1
w 128 -127 -107 0
w 129 128 108 1
w 129 128 -108 0
w 129 -128 108 1
w 129 -128 -108 1
w 130 129 109 0.679154
w 130 129 -109 0.746117
w 130 -129 109 0.466345
w 130 -129 -109 0.259446
w 131 130 110 1
w 131 130 -110 0
w 131 -130 110 0
w 131 -130 -110 1
w 132 131 111 0.421069
w 132 131 -111 0.544232
w 132 -131 111 0.324158
w 132 -131 -111 0.892745
w 133 132 112 1
w 133 132 -112 0
w 133 -132 112 0
w 133 -132 -112 1
w 134 133 113 0
w 134 133 -113 1
w 134 -133 113 1
w 134 -133 -113 1
w 135 134 114 0
w 135 134 -114 0
w 135 -134 114 1
w 135 -134 -114 1
w 136 135 115 1
w 136 135 -115 1
w 136 -135 115 0
w 136 -135 -115 0
w 137 136 116 0
w 137 136 -116 0
w 137 -136 116 0
w 137 -136 -116 1
w 138 137 117 1
w 138 137 -117 1
w 138 -137 117 0
w 138 -137 -117 0
w 139 138 118 0.435776
w 139 138 -118 0.787823
w 139 -138 118 0.33999
w 139 -138 -118 0.123741
w 140 139 119 0
w 140 139 -119 1
w 140 -139 119 0
w 140 -139 -119 1
w 141 140 120 0.0623483
w 141 140 -120 0.312142
w 141 -140 120 0.1754
w 141 -140 -120 0.340834
w 142 141 121 1
w 142 141 -121 0
w 142 -141 121 0
w 142 -141 -121 0
w 143 142 122 0
w 143 142 -122 0
w 143 -142 122 0
w 143 -142 -122 1
w 144 143 123 1
w 144 143 -123 0
w 144 -143 123 1
w 144 -143 -123 0
w 145 144 124 1
w 145 144 -124 0
w 145 -144 124 0
w 145 -144 -124 1
w 146 145 125 1
w 146 145 -125 1
w 146 -145 125 0
w 146 -145 -125 1
w 147 146 126 1
w 147 146 -126 1
w 147 -146 126 0
w 147 -146 -126 1
w 148 127 0
w 148 -127 1
w 149 148 128 1
w 149 148 -128 0
w 149 -148 128 1
w 149 -148 -128 1
w 150 149 129 1
w 150 149 -129 0
w 150 -149 129 0
w 150 -149 -129 1
w 151 150 130 0.797221
w 151 150 -130 0.617272
w 151 -150 130 0.407568
w 151 -150 -130 0.653884
w 152 151 131 0
w 152 151 -131 1
w 152 -151 131 0
w 152 -151 -131 1
w 153 152 132 1
w 153 152 -132 0
w 153 -152 132 0
w 153 -152 -132 0
w 154 153 133 1
w 154 153 -133 1
w 154 -153 133 1
w 154 -153 -133 0
w 155 154 134 1
w 155 154 -134 1
w 155 -154 134 0
w 155 -154 -134 0
w 156 155 135 0
w 156 155 -135 0
w 156 -155 135 1
w 156 -155 -135 0
w 157 156 136 0
w 157 156 -136 1
w 157 -156 136 0
w 157 -156 -136 1
w 158 157 137 1
w 158 157 -137 1
w 158 -157 137 0
w 158 -157 -137 1
w 159 158 138 0
w 159 158 -138 0
w 159 -158 138 1
w 159 -158 -138 0
w 160 159 139 1
w 160 159 -139 1
w 160 -159 139 0
w 160 -159 -139 1
w 161 160 140 0
w 161 160 -140 0
w 161 -160 140 1
w 161 -160 -140 0
w 162 161 141 1
w 162 161 -141 0
w 162 -161 141 0
w 162 -161 -141 0
w 163 162 142 0
w 163 162 -142 1
w 163 -162 142 1
w 163 -162 -142 1
w 164 163 143 0
w 164 163 -143 1
w 164 -163 143 1
w 164 -163 -143 0
w 165 164 144 0
w 165 164 -144 1
w 165 -164 144 0
w 165 -164 -144 0
w 166 165 145 0
w 166 165 -145 0
w 166 -165 145 0
w 166 -165 -145 1
w 167 166 146 0
w 167 166 -146 0
w 167 -166 146 0
w 167 -166 -146 1
w 168 167 147 1
w 168 167 -147 1
w 168 -167 147 0
w 168 -167 -147 0
w 169 148 1
w 169 -148 0
w 170 169 149 0
w 170 169 -149 0
w 170 -169 149 0
w 170 -169 -149 1
w 171 170 150 0
w 171 170 -150 1
w 171 -170 150 0
w 171 -170 -150 1
w 172 171 151 0.337739
w 172 171 -151 0.662047
w 172 -171 151 0.217999
w 172 -171 -151 0.566462
w 173 172 152 0
w 173 172 -152 0
w 173 -172 152 1
w 173 -172 -152 0
w 174 173 153 0.958238
w 174 173 -153 0.459978
w 174 -173 153 0.931851
w 174 -173 -153 0.241713
w 175 174 154 0
w 175 174 -154 0
w 175 -174 154 1
w 175 -174 -154 0
w 176 175 155 1
w 176 175 -155 0
w 176 -175 155 1
w 176 -175 -155 1
w 177 176 156 1
w 177 176 -156 0
w 177 -176 156 0
w 177 -176 -156 0
w 178 177 157 1
w 178 177 -157 0
w 178 -177 157 1
w 178 -177 -157 1
w 179 178 158 0.416508
w 179 178 -158 0.446308
w 179 -178 158 0.181979
w 179 -178 -158 0.667125
w 180 179 159 1
w 180 179 -159 1
w 180 -179 159 0
w 180 -179 -159 0
w 181 180 160 0.134091
w 181 180 -160 0.698066
w 181 -180 160 0.0141697
w 181 -180 -160 0.134037
w 182 181 161 0.35187
w 182 181 -161 0.0326121
w 182 -181 161 0.132103
w 182 -181 -161 0.571609
w 183 182 162 1
w 183 182 -162 1
w 183 -182 162 0
w 183 -182 -162 0
w 184 183 163 1
w 184 183 -163 1
w 184 -183 163 0
w 184 -183 -163 0
w 185 184 164 1
w 185 184 -164 0
w 185 -184 164 0
w 185 -184 -164 0
w 186 185 165 1
w 186 185 -165 1
w 186 -185 165 0
w 186 -185 -165 0
w 187 186 166 0
w 187 186 -166 0
w 187 -186 166 1
w 187 -186 -166 0
w 188 187 167 0
w 188 187 -167 1
w 188 -187 167 1
w 188 -187 -167 0
w 189 188 168 0
w 189 188 -168 1
w 189 -188 168 1
w 189 -188 -168 1
w 190 169 0
w 190 -169 1
w 191 190 170 0
w 191 190 -170 0
w 191 -190 170 1
w 191 -190 -170 1
w 192 191 171 0.193109
w 192 191 -171 0.82033
w 192 -191 171 0.426398
w 192 -191 -171 0.781164
w 193 192 172 0.478781
w 193 192 -172 0.386906
w 193 -192 172 0.770912
w 193 -192 -172 0.665255
w 194 193 173 0
w 194 193 -173 0
w 194 -193 173 1
w 194 -193 -173 1
w 195 194 174 0
w 195 194 -174 1
w 195 -194 174 0
w 195 -194 -174 1
w 196 195 175 1
w 196 195 -175 0
w 196 -195 175 0
w 196 -195 -175 1
w 197 196 176 1
w 197 196 -176 0
w 197 -196 176 1
w 197 -196 -176 0
w 198 197 177 0.296078
w 198 197 -177 0.576754
w 198 -197 177 0.632379
w 198 -197 -177 0.722477
w 199 198 178 1
w 199 198 -178 1
w 199 -198 178 1
w 199 -198 -178 0
w 200 199 179 0.435537
w 200 199 -179 0.959285
w 200 -199 179 0.852279
w 200 -199 -179 0.3359
w 201 200 180 0.191168
w 201 200 -180 0.578015
w 201 -200 180 0.743321
w 201 -200 -180 0.217265
w 202 201 181 0
w 202 201 -181 0
w 202 -201 181 1
w 202 -201 -181 1
w 203 202 182 0
w 203 202 -182 0
w 203 -202 182 1
w 203 -202 -182 1
w 204 203 183 0
w 204 203 -183 0
w 204 -203 183 0
w 204 -203 -183 1
w 205 204 184 1
w 205 204 -184 0
w 205 -204 184 1
w 205 -204 -184 1
w 206 205 185 0.681854
w 206 205 -185 0.973884
w 206 -205 185 0.639663
w 206 -205 -185 0.017754
w 207 206 186 0.830831
w 207 206 -186 0.595769
w 207 -206 186 0.645269
w 207 -206 -186 0.0480958
w 208 207 187 0
w 208 207 -187 0
w 208 -207 187 0
w 208 -207 -187 1
w 209 208 188 0
w 209 208 -188 1
w 209 -208 188 1
w 209 -208 -188 1
w 210 209 189 0
w 210 209 -189 1
w 210 -209 189 0
w 210 -209 -189 1
w 211 190 1
w 211 -190 0
w 212 211 191 1
w 212 211 -191 0
w 212 -211 191 1
w 212 -211 -191 0
w 213 212 192 1
w 213 212 -192 0
w 213 -212 192 1
w 213 -212 -192 0
w 214 213 193 1
w 214 213 -193 0
w 214 -213 193 1
w 214 -213 -193 1
w 215 214 194 1
w 215 214 -194 0
w 215 -214 194 1
w 215 -214 -194 1
w 216 215 195 1
w 216 215 -195 0
w 216 -215 195 1
w 216 -215 -195 1
w 217 216 196 1
w 217 216 -196 0
w 217 -216 196 1
w 217 -216 -196 0
w 218 217 197 0.768457
w 218 217 -197 0.572323
w 218 -217 197 0.500162
w 218 -217 -197 0.639939
w 219 218 198 1
w 219 218 -198 1
w 219 -218 198 0
w 219 -218 -198 1
w 220 219 199 1
w 220 219 -199 1
w 220 -219 199 1
w 220 -219 -199 0
w 221 220 200 0
w 221 220 -200 0
w 221 -220 200 1
w 221 -220 -200 0
w 222 221 201 0
w 222 221 -201 1
w 222 -221 201 0
w 222 -221 -201 1
w 223 222 202 0.629748
w 223 222 -202 0.930885
w 223 -222 202 0.29292
w 223 -222 -202 0.314107
w 224 223 203 1
w 224 223 -203 0
w 224 -223 203 0
w 224 -223 -203 0
w 225 224 204 0
w 225 224 -204 1
w 225 -224 204 0
w 225 -224 -204 0
w 226 225 205 0
w 226 225 -205 1
w 226 -225 205 0
w 226 -225 -205 1
w 227 226 206 0.147564
w 227 226 -206 0.219867
w 227 -226 206 0.174077
w 227 -226 -206 0.744004
w 228 227 207 1
w 228 227 -207 0
w 228 -227 207 1
w 228 -227 -207 1
w 229 228 208 1
w 229 228 -208 1
w 229 -228 208 0
w 229 -228 -208 1
w 230 229 209 1
w 230 229 -209 0
w 230 -229 209 1
w 230 -229 -209 1
w 231 230 210 1
w 231 230 -210 0
w 231 -230 210 0
w 231 -230 -210 0
w 232 211 0.302948
w 232 -211 0.402162
w 233 232 212 0
w 233 232 -212 1
w 233 -232 212 0
w 233 -232 -212 0
w 234 233 213 1
w 234 233 -213 0
w 234 -233 213 1
w 234 -233 -213 1
w 235 234 214 0.869228
w 235 234 -214 0.438651
w 235 -234 214 0.282958
w 235 -234 -214 0.812768
w 236 235 215 0
w 236 235 -215 1
w 236 -235 215 0
w 236 -235 -215 1
w 237 236 216 1
w 237 236 -216 0
w 237 -236 216 0
w 237 -236 -216 0
w 238 237 217 0
w 238 237 -217 0
w 238 -237 217 0
w 238 -237 -217 1
w 239 238 218 1
w 239 238 -218 0
w 239 -238 218 1
w 239 -238 -218 1
w 240 239 219 1
w 240 239 -219 1
w 240 -239 219 1
w 240 -239 -219 0
w 241 240 220 0
w 241 240 -220 0
w 241 -240 220 1
w 241 -240 -220 1
w 242 241 221 0.0503869
w 242 241 -221 0.328319
w 242 -241 221 0.883685
w 242 -241 -221 0.948132
w 243 242 222 1
w 243 242 -222 1
w 243 -242 222 0
w 243 -242 -222 1
w 244 243 223 0.825236
w 244 243 -223 0.177289
w 244 -243 223 0.636372
w 244 -243 -223 0.057849
w 245 244 224 0.685768
w 245 244 -224 0.801063
w 245 -244 224 0.155193
w 245 -244 -224 0.911347
w 246 245 225 0
w 246 245 -225 1
w 246 -245 225 0
w 246 -245 -225 1
w 247 246 226 1
w 247 246 -226 1
w 247 -246 226 1
w 247 -246 -226 0
w 248 247 227 0
w 248 247 -227 1
w 248 -247 227 1
w 248 -247 -227 1
w 249 248 228 0.369654
w 249 248 -228 0.61023
w 249 -248 228 0.372535
w 249 -248 -228 0.732647
w 250 249 229 1
w 250 249 -229 0
w 250 -249 229 0
w 250 -249 -229 1
w 251 250 230 0
w 251 250 -230 0
w 251 -250 230 0
w 251 -250 -230 1
w 252 251 231 0
w 252 251 -231 1
w 252 -251 231 1
w 252 -251 -231 0
w 253 232 0
w 253 -232 1
w 254 253 233 0.515417
w 254 253 -233 0.31977
w 254 -253 233 0.743199
w 254 -253 -233 0.103636
w 255 254 234 0.683123
w 255 254 -234 0.0201733
w 255 -254 234 0.0679234
w 255 -254 -234 0.571179
w 256 255 235 0
w 256 255 -235 1
w 256 -255 235 1
w 256 -255 -235 0
w 257 256 236 1
w 257 256 -236 1
w 257 -256 236 0
w 257 -256 -236 1
w 258 257 237 1
w 258 257 -237 0
w 258 -257 237 0
w 258 -257 -237 0
w 259 258 238 1
w 259 258 -238 0
w 259 -258 238 0
w 259 -258 -238 1
w 260 259 239 0.138211
w 260 259 -239 0.685324
w 260 -259 239 0.554208
w 260 -259 -239 0.241847
w 261 260 240 1
w 261 260 -240 1
w 261 -260 240 0
w 261 -260 -240 1
w 262 261 241 0
w 262 261 -241 1
w 262 -261 241 1
w 262 -261 -241 1
w 263 262 242 0.361041
w 263 262 -242 0.750771
w 263 -262 242 0.906882
w 263 -262 -242 0.348284
w 264 263 243 0
w 264 263 -243 1
w 264 -263 243 0
w 264 -263 -243 0
w 265 264 244 0
w 265 264 -244 0
w 265 -264 244 1
w 265 -264 -244 0
w 266 265 245 0.646312
w 266 265 -245 0.11834
w 266 -265 245 0.0160387
w 266 -265 -245 0.0836402
w 267 266 246 0
w 267 266 -246 1
w 267 -266 246 1
w 267 -266 -246 1
w 268 267 247 0.704229
w 268 267 -247 0.0117336
w 268 -267 247 0.974014
w 268 -267 -247 0.158909
w 269 268 248 0.335055
w 269 268 -248 0.90968
w 269 -268 248 0.769253
w 269 -268 -248 0.683339
w 270 269 249 1
w 270 269 -249 0
w 270 -269 249 1
w 270 -269 -249 1
w 271 270 250 0
w 271 270 -250 1
w 271 -270 250 0
w 271 -270 -250 0
w 272 271 251 0.60471
w 272 271 -251 0.772016
w 272 -271 251 0.9004
w 272 -271 -251 0.96038
w 273 272 252 1
w 273 272 -252 1
w 273 -272 252 1
w 273 -272 -252 0
w 274 253 0
w 274 -253 1
w 275 274 254 0
w 275 274 -254 0
w 275 -274 254 0
w 275 -274 -254 1
w 276 275 255 0.0333727
w 276 275 -255 0.126134
w 276 -275 255 0.237563
w 276 -275 -255 0.647398
w 277 276 256 1
w 277 276 -256 1
w 277 -276 256 0
w 277 -276 -256 1
w 278 277 257 1
w 278 277 -257 0
w 278 -277 257 1
w 278 -277 -257 0
w 279 278 258 1
w 279 278 -258 0
w 279 -278 258 1
w 279 -278 -258 0
w 280 279 259 0
w 280 279 -259 1
w 280 -279 259 1
w 280 -279 -259 1
w 281 280 260 0.449447
w 281 280 -260 0.650529
w 281 -280 260 0.904357
w 281 -280 -260 0.799481
w 282 281 261 0
w 282 281 -261 1
w 282 -281 261 1
w 282 -281 -261 1
w 283 282 262 0
w 283 282 -262 0
w 283 -282 262 0
w 283 -282 -262 1
w 284 283 263 1
w 284 283 -263 1
w 284 -283 263 0
w 284 -283 -263 1
w 285 284 264 1
w 285 284 -264 0
w 285 -284 264 1
w 285 -284 -264 1
w 286 285 265 0
w 286 285 -265 0
w 286 -285 265 1
w 286 -285 -265 1
w 287 286 266 1
w 287 286 -266 0
w 287 -286 266 0
w 287 -286 -266 0
w 288 287 267 1
w 288 287 -267 0
w 288 -287 267 1
w 288 -287 -267 1
w 289 288 268 0
w 289 288 -268 1
w 289 -288 268 0
w 289 -288 -268 1
w 290 289 269 0
w 290 289 -269 1
w 290 -289 269 1
w 290 -289 -269 1
w 291 290 270 1
w 291 290 -270 1
w 291 -290 270 1
w 291 -290 -270 0
w 292 291 271 0.79198
w 292 291 -271 0.445262
w 292 -291 271 0.12654
w 292 -291 -271 0.475469
w 293 292 272 0.727523
w 293 292 -272 0.809487
w 293 -292 272 0.251036
w 293 -292 -272 0.127987
w 294 293 273 1
w 294 293 -273 1
w 294 -293 273 0
w 294 -293 -273 0
w 295 274 0
w 295 -274 1
w 296 295 275 1
w 296 295 -275 1
w 296 -295 275 0
w 296 -295 -275 0
w 297 296 276 0.0583194
w 297 296 -276 0.16422
w 297 -296 276 0.853004
w 297 -296 -276 0.221342
w 298 297 277 0
w 298 297 -277 1
w 298 -297 277 1
w 298 -297 -277 1
w 299 298 278 0.949218
w 299 298 -278 0.212487
w 299 -298 278 0.404692
w 299 -298 -278 0.845188
w 300 299 279 0.214179
w 300 299 -279 0.0962244
w 300 -299 279 0.0679968
w 300 -299 -279 0.761011
w 301 300 280 0
w 301 300 -280 1
w 301 -300 280 0
w 301 -300 -280 0
w 302 301 281 0
w 302 301 -281 1
w 302 -301 281 1
w 302 -301 -281 0
w 303 302 282 0
w 303 302 -282 1
w 303 -302 282 0
w 303 -302 -282 0
w 304 303 283 1
w 304 303 -283 0
w 304 -303 283 1
w 304 -303 -283 0
w 305 304 284 0
w 305 304 -284 1
w 305 -304 284 0
w 305 -304 -284 0
w 306 305 285 0
w 306 305 -285 1
w 306 -305 285 1
w 306 -305 -285 1
w 307 306 286 0.981549
w 307 306 -286 0.136984
w 307 -306 286 0.411986
w 307 -306 -286 0.119817
w 308 307 287 1
w 308 307 -287 1
w 308 -307 287 0
w 308 -307 -287 0
w 309 308 288 0.441259
w 309 308 -288 0.847753
w 309 -308 288 0.00716857
w 309 -308 -288 0.775853
w 310 309 289 1
w 310 309 -289 1
w 310 -309 289 1
w 310 -309 -289 0
w 311 310 290 1
w 311 310 -290 0
w 311 -310 290 1
w 311 -310 -290 0
w 312 311 291 1
w 312 311 -291 0
w 312 -311 291 0
w 312 -311 -291 0
w 313 312 292 0
w 313 312 -292 1
w 313 -312 292 0
w 313 -312 -292 1
w 314 313 293 0.851667
w 314 313 -293 0.463428
w 314 -313 293 0.630156
w 314 -313 -293 0.122553
w 315 314 294 0.467676
w 315 314 -294 0.563812
w 315 -314 294 0.721639
w 315 -314 -294 0.474844
w 316 295 1
w 316 -295 0
w 317 316 296 0.19085
w 317 316 -296 0.398984
w 317 -316 296 0.799394
w 317 -316 -296 0.621325
w 318 317 297 1
w 318 317 -297 1
w 318 -317 297 0
w 318 -317 -297 0
w 319 318 298 0.517467
w 319 318 -298 0.751549
w 319 -318 298 0.715583
w 319 -318 -298 0.590992
w 320 319 299 0.49973
w 320 319 -299 0.801501
w 320 -319 299 0.482842
w 320 -319 -299 0.403695
w 321 320 300 0
w 321 320 -300 0
w 321 -320 300 1
w 321 -320 -300 0
w 322 321 301 1
w 322 321 -301 0
w 322 -321 301 1
w 322 -321 -301 0
w 323 322 302 1
w 323 322 -302 0
w 323 -322 302 1
w 323 -322 -302 1
w 324 323 303 1
w 324 323 -303 0
w 324 -323 303 1
w 324 -323 -303 1
w 325 324 304 1
w 325 324 -304 1
w 325 -324 304 0
w 325 -324 -304 0
w 326 325 305 0
w 326 325 -305 0
w 326 -325 305 1
w 326 -325 -305 0
w 327 326 306 1
w 327 326 -306 0
w 327 -326 306 0
w 327 -326 -306 1
w 328 327 307 0
w 328 327 -307 0
w 328 -327 307 0
w 328 -327 -307 1
w 329 328 308 1
w 329 328 -308 0
w 329 -328 308 0
w 329 -328 -308 1
w 330 329 309 0
w 330 329 -309 0
w 330 -329 309 0
w 330 -329 -309 1
w 331 330 310 0
w 331 330 -310 1
w 331 -330 310 1
w 331 -330 -310 1
w 332 331 311 0.901547
w 332 331 -311 0.64359
w 332 -331 311 0.0531328
w 332 -331 -311 0.189066
w 333 332 312 0
w 333 332 -312 1
w 333 -332 312 0
w 333 -332 -312 0
w 334 333 313 0.576788
w 334 333 -313 0.433383
w 334 -333 313 0.902105
w 334 -333 -313 0.291843
w 335 334 314 1
w 335 334 -314 0
w 335 -334 314 1
w 335 -334 -314 1
w 336 335 315 0
w 336 335 -315 0
w 336 -335 315 0
w 336 -335 -315 1
w 337 316 0.279545
w 337 -316 0.660137
w 338 337 317 0
w 338 337 -317 0
w 338 -337 317 1
w 338 -337 -317 1
w 339 338 318 1
w 339 338 -318 1
w 339 -338 318 0
w 339 -338 -318 0
w 340 339 319 0
w 340 339 -319 0
w 340 -339 319 1
w 340 -339 -319 0
w 341 340 320 0
w 341 340 -320 1
w 341 -340 320 1
w 341 -340 -320 1
w 342 341 321 1
w 342 341 -321 0
w 342 -341 321 0
w 342 -341 -321 1
w 343 342 322 1
w 343 342 -322 0
w 343 -342 322 0
w 343 -342 -322 0
w 344 343 323 0.560646
w 344 343 -323 0.991937
w 344 -343 323 0.272332
w 344 -343 -323 0.866566
w 345 344 324 1
w 345 344 -324 0
w 345 -344 324 0
w 345 -344 -324 1
w 346 345 325 0.424514
w 346 345 -325 0.579548
w 346 -345 325 0.457193
w 346 -345 -325 0.0979874
w 347 346 326 1
w 347 346 -326 1
w 347 -346 326 0
w 347 -346 -326 0
w 348 347 327 0
w 348 347 -327 1
w 348 -347 327 1
w 348 -347 -327 0
w 349 348 328 1
w 349 348 -328 1
w 349 -348 328 1
w 349 -348 -328 0
w 350 349 329 0.542753
w 350 349 -329 0.0204505
w 350 -349 329 0.882085
w 350 -349 -329 0.815085
w 351 350 330 0.516755
w 351 350 -330 0.653841
w 351 -350 330 0.248567
w 351 -350 -330 0.844584
w 352 351 331 0
w 352 351 -331 1
w 352 -351 331 0
w 352 -351 -331 1
w 353 352 332 1
w 353 352 -332 0
w 353 -352 332 1
w 353 -352 -332 1
w 354 353 333 0
w 354 353 -333 1
w 354 -353 333 0
w 354 -353 -333 1
w 355 354 334 0
w 355 354 -334 0
w 355 -354 334 1
w 355 -354 -334 1
w 356 355 335 0.871314
w 356 355 -335 0.467108
w 356 -355 335 0.787274
w 356 -355 -335 0.753399
w 357 356 336 0
w 357 356 -336 1
w 357 -356 336 0
w 357 -356 -336 0
w 358 337 1
w 358 -337 0
w 359 358 338 1
w 359 358 -338 1
w 359 -358 338 0
w 359 -358 -338 1
w 360 359 339 1
w 360 359 -339 1
w 360 -359 339 0
w 360 -359 -339 1
w 361 360 340 0
w 361 360 -340 0
w 361 -360 340 1
w 361 -360 -340 0
w 362 361 341 0
w 362 361 -341 1
w 362 -361 341 1
w 362 -361 -341 1
w 363 362 342 0.218612
w 363 362 -342 0.0048547
w 363 -362 342 0.587597
w 363 -362 -342 0.488766
w 364 363 343 0.510454
w 364 363 -343 0.603503
w 364 -363 343 0.592751
w 364 -363 -343 0.668168
w 365 364 344 0.539989
w 365 364 -344 0.517933
w 365 -364 344 0.738258
w 365 -364 -344 0.313094
w 366 365 345 0.919567
w 366 365 -345 0.942312
w 366 -365 345 0.624665
w 366 -365 -345 0.968269
w 367 366 346 1
w 367 366 -346 0
w 367 -366 346 0
w 367 -366 -346 1
w 368 367 347 1
w 368 367 -347 1
w 368 -367 347 1
w 368 -367 -347 0
w 369 368 348 1
w 369 368 -348 0
w 369 -368 348 1
w 369 -368 -348 0
w 370 369 349 0.0703737
w 370 369 -349 0.517063
w 370 -369 349 0.45396
w 370 -369 -349 0.663125
w 371 370 350 0
w 371 370 -350 1
w 371 -370 350 1
w 371 -370 -350 0
w 372 371 351 0
w 372 371 -351 1
w 372 -371 351 0
w 372 -371 -351 1
w 373 372 352 0
w 373 372 -352 0
w 373 -372 352 1
w 373 -372 -352 0
w 374 373 353 0
w 374 373 -353 1
w 374 -373 353 1
w 374 -373 -353 1
w 375 374 354 0
w 375 374 -354 0
w 375 -374 354 1
w 375 -374 -354 0
w 376 375 355 1
w 376 375 -355 0
w 376 -375 355 0
w 376 -375 -355 0
w 377 376 356 0
w 377 376 -356 1
w 377 -376 356 0
w 377 -376 -356 0
w 378 377 357 0
w 378 377 -357 1
w 378 -377 357 1
w 378 -377 -357 0
w 379 358 1
w 379 -358 0
w 380 379 359 1
w 380 379 -359 0
w 380 -379 359 0
w 380 -379 -359 0
w 381 380 360 0
w 381 380 -360 1
w 381 -380 360 1
w 381 -380 -360 0
w 382 381 361 1
w 382 381 -361 0
w 382 -381 361 0
w 382 -381 -361 0
w 383 382 362 0.523732
w 383 382 -362 0.96049
w 383 -382 362 0.425342
w 383 -382 -362 0.624871
w 384 383 363 0.197448
w 384 383 -363 0.429173
w 384 -383 363 0.0241843
w 384 -383 -363 0.485763
w 385 384 364 0.244933
w 385 384 -364 0.232597
w 385 -384 364 0.441777
w 385 -384 -364 0.533075
w 386 385 365 0.0899626
w 386 385 -365 0.909069
w 386 -385 365 0.599492
w 386 -385 -365 0.91756
w 387 386 366 0.981384
w 387 386 -366 0.326537
w 387 -386 366 0.569326
w 387 -386 -366 0.19794
w 388 387 367 1
w 388 387 -367 0
w 388 -387 367 1
w 388 -387 -367 1
w 389 388 368 0
w 389 388 -368 0
w 389 -388 368 0
w 389 -388 -368 1
w 390 389 369 1
w 390 389 -369 0
w 390 -389 369 0
w 390 -389 -369 0
w 391 390 370 0.202736
w 391 390 -370 0.589503
w 391 -390 370 0.232269
w 391 -390 -370 0.735812
w 392 391 371 1
w 392 391 -371 0
w 392 -391 371 0
w 392 -391 -371 1
w 393 392 372 0
w 393 392 -372 0
w 393 -392 372 1
w 393 -392 -372 1
w 394 393 373 0
w 394 393 -373 1
w 394 -393 373 0
w 394 -393 -373 0
w 395 394 374 0.648211
w 395 394 -374 0.0410867
w 395 -394 374 0.989983
w 395 -394 -374 0.321906
w 396 395 375 1
w 396 395 -375 0
w 396 -395 375 1
w 396 -395 -375 1
w 397 396 376 0
w 397 396 -376 1
w 397 -396 376 0
w 397 -396 -376 1
w 398 397 377 0.638147
w 398 397 -377 0.884715
w 398 -397 377 0.464833
w 398 -397 -377 0.736328
w 399 398 378 1
w 399 398 -378 1
w 399 -398 378 0
w 399 -398 -378 0
w 400 379 1
w 400 -379 0
w 401 400 380 0
w 401 400 -380 1
w 401 -400 380 0
w 401 -400 -380 0
w 402 401 381 0
w 402 401 -381 0
w 402 -401 381 0
w 402 -401 -381 1
w 403 402 382 0.26171
w 403 402 -382 0.86204
w 403 -402 382 0.735664
w 403 -402 -382 0.811665
w 404 403 383 0
w 404 403 -383 1
w 404 -403 383 0
w 404 -403 -383 1
w 405 404 384 0
w 405 404 -384 1
w 405 -404 384 1
w 405 -404 -384 1
w 406 405 385 1
w 406 405 -385 0
w 406 -405 385 1
w 406 -405 -385 0
w 407 406 386 0
w 407 406 -386 1
w 407 -406 386 1
w 407 -406 -386 1
w 408 407 387 0.0879726
w 408 407 -387 0.0674423
w 408 -407 387 0.144386
w 408 -407 -387 0.942232
w 409 408 388 0
w 409 408 -388 0
w 409 -408 388 1
w 409 -408 -388 1
w 410 409 389 0
w 410 409 -389 1
w 410 -409 389 0
w 410 -409 -389 0
w 411 410 390 1
w 411 410 -390 0
w 411 -410 390 1
w 411 -410 -390 0
w 412 411 391 0
w 412 411 -391 1
w 412 -411 391 0
w 412 -411 -391 0
w 413 412 392 1
w 413 412 -392 1
w 413 -412 392 1
w 413 -412 -392 0
w 414 413 393 0.283366
w 414 413 -393 0.4171
w 414 -413 393 0.787348
w 414 -413 -393 0.612518
w 415 414 394 1
w 415 414 -394 0
w 415 -414 394 1
w 415 -414 -394 0
w 416 415 395 0.575627
w 416 415 -395 0.1004
w 416 -415 395 0.526488
w 416 -415 -395 0.168501
w 417 416 396 1
w 417 416 -396 1
w 417 -416 396 1
w 417 -416 -396 0
w 418 417 397 0
w 418 417 -397 1
w 418 -417 397 0
w 418 -417 -397 1
w 419 418 398 1
w 419 418 -398 0
w 419 -418 398 0
w 419 -418 -398 1
w 420 419 399 0
w 420 419 -399 1
w 420 -419 399 0
w 420 -419 -399 1
w 421 400 0
w 421 -400 1
w 422 421 401 0
w 422 421 -401 0
w 422 -421 401 0
w 422 -421 -401 1
w 423 422 402 0
w 423 422 -402 1
w 423 -422 402 0
w 423 -422 -402 0
w 424 423 403 1
w 424 423 -403 0
w 424 -423 403 1
w 424 -423 -403 1
w 425 424 404 1
w 425 424 -404 1
w 425 -424 404 1
w 425 -424 -404 0
w 426 425 405 0
w 426 425 -405 1
w 426 -425 405 1
w 426 -425 -405 1
w 427 426 406 0
w 427 426 -406 0
w 427 -426 406 1
w 427 -426 -406 1
w 428 427 407 1
w 428 427 -407 1
w 428 -427 407 0
w 428 -427 -407 0
w 429 428 408 1
w 429 428 -408 1
w 429 -428 408 0
w 429 -428 -408 0
w 430 429 409 1
w 430 429 -409 0
w 430 -429 409 1
w 430 -429 -409 1
w 431 430 410 0
w 431 430 -410 0
w 431 -430 410 1
w 431 -430 -410 1
w 432 431 411 0
w 432 431 -411 0
w 432 -431 411 1
w 432 -431 -411 1
w 433 432 412 0.25139
w 433 432 -412 0.432451
w 433 -432 412 0.415523
w 433 -432 -412 0.214147
w 434 433 413 0
w 434 433 -413 0
w 434 -433 413 1
w 434 -433 -413 1
w 435 434 414 0
w 435 434 -414 0
w 435 -434 414 1
w 435 -434 -414 0
w 436 435 415 1
w 436 435 -415 0
w 436 -435 415 0
w 436 -435 -415 0
w 437 436 416 0
w 437 436 -416 0
w 437 -436 416 1
w 437 -436 -416 0
w 438 437 417 0
w 438 437 -417 0
w 438 -437 417 1
w 438 -437 -417 1
w 439 438 418 0
w 439 438 -418 0
w 439 -438 418 1
w 439 -438 -418 1
w 440 439 419 0.872352
w 440 439 -419 0.986423
w 440 -439 419 0.176949
w 440 -439 -419 0.352587
w 441 440 420 0
w 441 440 -420 0
w 441 -440 420 1
w 441 -440 -420 1